c created by edge2cnf
p cnf 500 3100
-1 -2 0
-1 -3 0
-1 -4 0
-1 -5 0
-2 -3 0
-2 -4 0
-2 -5 0
-3 -4 0
-3 -5 0
-4 -5 0
1 2 3 4 5 0
-6 -7 0
-6 -8 0
-6 -9 0
-6 -10 0
-7 -8 0
-7 -9 0
-7 -10 0
-8 -9 0
-8 -10 0
-9 -10 0
6 7 8 9 10 0
-11 -12 0
-11 -13 0
-11 -14 0
-11 -15 0
-12 -13 0
-12 -14 0
-12 -15 0
-13 -14 0
-13 -15 0
-14 -15 0
11 12 13 14 15 0
-16 -17 0
-16 -18 0
-16 -19 0
-16 -20 0
-17 -18 0
-17 -19 0
-17 -20 0
-18 -19 0
-18 -20 0
-19 -20 0
16 17 18 19 20 0
-21 -22 0
-21 -23 0
-21 -24 0
-21 -25 0
-22 -23 0
-22 -24 0
-22 -25 0
-23 -24 0
-23 -25 0
-24 -25 0
21 22 23 24 25 0
-26 -27 0
-26 -28 0
-26 -29 0
-26 -30 0
-27 -28 0
-27 -29 0
-27 -30 0
-28 -29 0
-28 -30 0
-29 -30 0
26 27 28 29 30 0
-31 -32 0
-31 -33 0
-31 -34 0
-31 -35 0
-32 -33 0
-32 -34 0
-32 -35 0
-33 -34 0
-33 -35 0
-34 -35 0
31 32 33 34 35 0
-36 -37 0
-36 -38 0
-36 -39 0
-36 -40 0
-37 -38 0
-37 -39 0
-37 -40 0
-38 -39 0
-38 -40 0
-39 -40 0
36 37 38 39 40 0
-41 -42 0
-41 -43 0
-41 -44 0
-41 -45 0
-42 -43 0
-42 -44 0
-42 -45 0
-43 -44 0
-43 -45 0
-44 -45 0
41 42 43 44 45 0
-46 -47 0
-46 -48 0
-46 -49 0
-46 -50 0
-47 -48 0
-47 -49 0
-47 -50 0
-48 -49 0
-48 -50 0
-49 -50 0
46 47 48 49 50 0
-51 -52 0
-51 -53 0
-51 -54 0
-51 -55 0
-52 -53 0
-52 -54 0
-52 -55 0
-53 -54 0
-53 -55 0
-54 -55 0
51 52 53 54 55 0
-56 -57 0
-56 -58 0
-56 -59 0
-56 -60 0
-57 -58 0
-57 -59 0
-57 -60 0
-58 -59 0
-58 -60 0
-59 -60 0
56 57 58 59 60 0
-61 -62 0
-61 -63 0
-61 -64 0
-61 -65 0
-62 -63 0
-62 -64 0
-62 -65 0
-63 -64 0
-63 -65 0
-64 -65 0
61 62 63 64 65 0
-66 -67 0
-66 -68 0
-66 -69 0
-66 -70 0
-67 -68 0
-67 -69 0
-67 -70 0
-68 -69 0
-68 -70 0
-69 -70 0
66 67 68 69 70 0
-71 -72 0
-71 -73 0
-71 -74 0
-71 -75 0
-72 -73 0
-72 -74 0
-72 -75 0
-73 -74 0
-73 -75 0
-74 -75 0
71 72 73 74 75 0
-76 -77 0
-76 -78 0
-76 -79 0
-76 -80 0
-77 -78 0
-77 -79 0
-77 -80 0
-78 -79 0
-78 -80 0
-79 -80 0
76 77 78 79 80 0
-81 -82 0
-81 -83 0
-81 -84 0
-81 -85 0
-82 -83 0
-82 -84 0
-82 -85 0
-83 -84 0
-83 -85 0
-84 -85 0
81 82 83 84 85 0
-86 -87 0
-86 -88 0
-86 -89 0
-86 -90 0
-87 -88 0
-87 -89 0
-87 -90 0
-88 -89 0
-88 -90 0
-89 -90 0
86 87 88 89 90 0
-91 -92 0
-91 -93 0
-91 -94 0
-91 -95 0
-92 -93 0
-92 -94 0
-92 -95 0
-93 -94 0
-93 -95 0
-94 -95 0
91 92 93 94 95 0
-96 -97 0
-96 -98 0
-96 -99 0
-96 -100 0
-97 -98 0
-97 -99 0
-97 -100 0
-98 -99 0
-98 -100 0
-99 -100 0
96 97 98 99 100 0
-101 -102 0
-101 -103 0
-101 -104 0
-101 -105 0
-102 -103 0
-102 -104 0
-102 -105 0
-103 -104 0
-103 -105 0
-104 -105 0
101 102 103 104 105 0
-106 -107 0
-106 -108 0
-106 -109 0
-106 -110 0
-107 -108 0
-107 -109 0
-107 -110 0
-108 -109 0
-108 -110 0
-109 -110 0
106 107 108 109 110 0
-111 -112 0
-111 -113 0
-111 -114 0
-111 -115 0
-112 -113 0
-112 -114 0
-112 -115 0
-113 -114 0
-113 -115 0
-114 -115 0
111 112 113 114 115 0
-116 -117 0
-116 -118 0
-116 -119 0
-116 -120 0
-117 -118 0
-117 -119 0
-117 -120 0
-118 -119 0
-118 -120 0
-119 -120 0
116 117 118 119 120 0
-121 -122 0
-121 -123 0
-121 -124 0
-121 -125 0
-122 -123 0
-122 -124 0
-122 -125 0
-123 -124 0
-123 -125 0
-124 -125 0
121 122 123 124 125 0
-126 -127 0
-126 -128 0
-126 -129 0
-126 -130 0
-127 -128 0
-127 -129 0
-127 -130 0
-128 -129 0
-128 -130 0
-129 -130 0
126 127 128 129 130 0
-131 -132 0
-131 -133 0
-131 -134 0
-131 -135 0
-132 -133 0
-132 -134 0
-132 -135 0
-133 -134 0
-133 -135 0
-134 -135 0
131 132 133 134 135 0
-136 -137 0
-136 -138 0
-136 -139 0
-136 -140 0
-137 -138 0
-137 -139 0
-137 -140 0
-138 -139 0
-138 -140 0
-139 -140 0
136 137 138 139 140 0
-141 -142 0
-141 -143 0
-141 -144 0
-141 -145 0
-142 -143 0
-142 -144 0
-142 -145 0
-143 -144 0
-143 -145 0
-144 -145 0
141 142 143 144 145 0
-146 -147 0
-146 -148 0
-146 -149 0
-146 -150 0
-147 -148 0
-147 -149 0
-147 -150 0
-148 -149 0
-148 -150 0
-149 -150 0
146 147 148 149 150 0
-151 -152 0
-151 -153 0
-151 -154 0
-151 -155 0
-152 -153 0
-152 -154 0
-152 -155 0
-153 -154 0
-153 -155 0
-154 -155 0
151 152 153 154 155 0
-156 -157 0
-156 -158 0
-156 -159 0
-156 -160 0
-157 -158 0
-157 -159 0
-157 -160 0
-158 -159 0
-158 -160 0
-159 -160 0
156 157 158 159 160 0
-161 -162 0
-161 -163 0
-161 -164 0
-161 -165 0
-162 -163 0
-162 -164 0
-162 -165 0
-163 -164 0
-163 -165 0
-164 -165 0
161 162 163 164 165 0
-166 -167 0
-166 -168 0
-166 -169 0
-166 -170 0
-167 -168 0
-167 -169 0
-167 -170 0
-168 -169 0
-168 -170 0
-169 -170 0
166 167 168 169 170 0
-171 -172 0
-171 -173 0
-171 -174 0
-171 -175 0
-172 -173 0
-172 -174 0
-172 -175 0
-173 -174 0
-173 -175 0
-174 -175 0
171 172 173 174 175 0
-176 -177 0
-176 -178 0
-176 -179 0
-176 -180 0
-177 -178 0
-177 -179 0
-177 -180 0
-178 -179 0
-178 -180 0
-179 -180 0
176 177 178 179 180 0
-181 -182 0
-181 -183 0
-181 -184 0
-181 -185 0
-182 -183 0
-182 -184 0
-182 -185 0
-183 -184 0
-183 -185 0
-184 -185 0
181 182 183 184 185 0
-186 -187 0
-186 -188 0
-186 -189 0
-186 -190 0
-187 -188 0
-187 -189 0
-187 -190 0
-188 -189 0
-188 -190 0
-189 -190 0
186 187 188 189 190 0
-191 -192 0
-191 -193 0
-191 -194 0
-191 -195 0
-192 -193 0
-192 -194 0
-192 -195 0
-193 -194 0
-193 -195 0
-194 -195 0
191 192 193 194 195 0
-196 -197 0
-196 -198 0
-196 -199 0
-196 -200 0
-197 -198 0
-197 -199 0
-197 -200 0
-198 -199 0
-198 -200 0
-199 -200 0
196 197 198 199 200 0
-201 -202 0
-201 -203 0
-201 -204 0
-201 -205 0
-202 -203 0
-202 -204 0
-202 -205 0
-203 -204 0
-203 -205 0
-204 -205 0
201 202 203 204 205 0
-206 -207 0
-206 -208 0
-206 -209 0
-206 -210 0
-207 -208 0
-207 -209 0
-207 -210 0
-208 -209 0
-208 -210 0
-209 -210 0
206 207 208 209 210 0
-211 -212 0
-211 -213 0
-211 -214 0
-211 -215 0
-212 -213 0
-212 -214 0
-212 -215 0
-213 -214 0
-213 -215 0
-214 -215 0
211 212 213 214 215 0
-216 -217 0
-216 -218 0
-216 -219 0
-216 -220 0
-217 -218 0
-217 -219 0
-217 -220 0
-218 -219 0
-218 -220 0
-219 -220 0
216 217 218 219 220 0
-221 -222 0
-221 -223 0
-221 -224 0
-221 -225 0
-222 -223 0
-222 -224 0
-222 -225 0
-223 -224 0
-223 -225 0
-224 -225 0
221 222 223 224 225 0
-226 -227 0
-226 -228 0
-226 -229 0
-226 -230 0
-227 -228 0
-227 -229 0
-227 -230 0
-228 -229 0
-228 -230 0
-229 -230 0
226 227 228 229 230 0
-231 -232 0
-231 -233 0
-231 -234 0
-231 -235 0
-232 -233 0
-232 -234 0
-232 -235 0
-233 -234 0
-233 -235 0
-234 -235 0
231 232 233 234 235 0
-236 -237 0
-236 -238 0
-236 -239 0
-236 -240 0
-237 -238 0
-237 -239 0
-237 -240 0
-238 -239 0
-238 -240 0
-239 -240 0
236 237 238 239 240 0
-241 -242 0
-241 -243 0
-241 -244 0
-241 -245 0
-242 -243 0
-242 -244 0
-242 -245 0
-243 -244 0
-243 -245 0
-244 -245 0
241 242 243 244 245 0
-246 -247 0
-246 -248 0
-246 -249 0
-246 -250 0
-247 -248 0
-247 -249 0
-247 -250 0
-248 -249 0
-248 -250 0
-249 -250 0
246 247 248 249 250 0
-251 -252 0
-251 -253 0
-251 -254 0
-251 -255 0
-252 -253 0
-252 -254 0
-252 -255 0
-253 -254 0
-253 -255 0
-254 -255 0
251 252 253 254 255 0
-256 -257 0
-256 -258 0
-256 -259 0
-256 -260 0
-257 -258 0
-257 -259 0
-257 -260 0
-258 -259 0
-258 -260 0
-259 -260 0
256 257 258 259 260 0
-261 -262 0
-261 -263 0
-261 -264 0
-261 -265 0
-262 -263 0
-262 -264 0
-262 -265 0
-263 -264 0
-263 -265 0
-264 -265 0
261 262 263 264 265 0
-266 -267 0
-266 -268 0
-266 -269 0
-266 -270 0
-267 -268 0
-267 -269 0
-267 -270 0
-268 -269 0
-268 -270 0
-269 -270 0
266 267 268 269 270 0
-271 -272 0
-271 -273 0
-271 -274 0
-271 -275 0
-272 -273 0
-272 -274 0
-272 -275 0
-273 -274 0
-273 -275 0
-274 -275 0
271 272 273 274 275 0
-276 -277 0
-276 -278 0
-276 -279 0
-276 -280 0
-277 -278 0
-277 -279 0
-277 -280 0
-278 -279 0
-278 -280 0
-279 -280 0
276 277 278 279 280 0
-281 -282 0
-281 -283 0
-281 -284 0
-281 -285 0
-282 -283 0
-282 -284 0
-282 -285 0
-283 -284 0
-283 -285 0
-284 -285 0
281 282 283 284 285 0
-286 -287 0
-286 -288 0
-286 -289 0
-286 -290 0
-287 -288 0
-287 -289 0
-287 -290 0
-288 -289 0
-288 -290 0
-289 -290 0
286 287 288 289 290 0
-291 -292 0
-291 -293 0
-291 -294 0
-291 -295 0
-292 -293 0
-292 -294 0
-292 -295 0
-293 -294 0
-293 -295 0
-294 -295 0
291 292 293 294 295 0
-296 -297 0
-296 -298 0
-296 -299 0
-296 -300 0
-297 -298 0
-297 -299 0
-297 -300 0
-298 -299 0
-298 -300 0
-299 -300 0
296 297 298 299 300 0
-301 -302 0
-301 -303 0
-301 -304 0
-301 -305 0
-302 -303 0
-302 -304 0
-302 -305 0
-303 -304 0
-303 -305 0
-304 -305 0
301 302 303 304 305 0
-306 -307 0
-306 -308 0
-306 -309 0
-306 -310 0
-307 -308 0
-307 -309 0
-307 -310 0
-308 -309 0
-308 -310 0
-309 -310 0
306 307 308 309 310 0
-311 -312 0
-311 -313 0
-311 -314 0
-311 -315 0
-312 -313 0
-312 -314 0
-312 -315 0
-313 -314 0
-313 -315 0
-314 -315 0
311 312 313 314 315 0
-316 -317 0
-316 -318 0
-316 -319 0
-316 -320 0
-317 -318 0
-317 -319 0
-317 -320 0
-318 -319 0
-318 -320 0
-319 -320 0
316 317 318 319 320 0
-321 -322 0
-321 -323 0
-321 -324 0
-321 -325 0
-322 -323 0
-322 -324 0
-322 -325 0
-323 -324 0
-323 -325 0
-324 -325 0
321 322 323 324 325 0
-326 -327 0
-326 -328 0
-326 -329 0
-326 -330 0
-327 -328 0
-327 -329 0
-327 -330 0
-328 -329 0
-328 -330 0
-329 -330 0
326 327 328 329 330 0
-331 -332 0
-331 -333 0
-331 -334 0
-331 -335 0
-332 -333 0
-332 -334 0
-332 -335 0
-333 -334 0
-333 -335 0
-334 -335 0
331 332 333 334 335 0
-336 -337 0
-336 -338 0
-336 -339 0
-336 -340 0
-337 -338 0
-337 -339 0
-337 -340 0
-338 -339 0
-338 -340 0
-339 -340 0
336 337 338 339 340 0
-341 -342 0
-341 -343 0
-341 -344 0
-341 -345 0
-342 -343 0
-342 -344 0
-342 -345 0
-343 -344 0
-343 -345 0
-344 -345 0
341 342 343 344 345 0
-346 -347 0
-346 -348 0
-346 -349 0
-346 -350 0
-347 -348 0
-347 -349 0
-347 -350 0
-348 -349 0
-348 -350 0
-349 -350 0
346 347 348 349 350 0
-351 -352 0
-351 -353 0
-351 -354 0
-351 -355 0
-352 -353 0
-352 -354 0
-352 -355 0
-353 -354 0
-353 -355 0
-354 -355 0
351 352 353 354 355 0
-356 -357 0
-356 -358 0
-356 -359 0
-356 -360 0
-357 -358 0
-357 -359 0
-357 -360 0
-358 -359 0
-358 -360 0
-359 -360 0
356 357 358 359 360 0
-361 -362 0
-361 -363 0
-361 -364 0
-361 -365 0
-362 -363 0
-362 -364 0
-362 -365 0
-363 -364 0
-363 -365 0
-364 -365 0
361 362 363 364 365 0
-366 -367 0
-366 -368 0
-366 -369 0
-366 -370 0
-367 -368 0
-367 -369 0
-367 -370 0
-368 -369 0
-368 -370 0
-369 -370 0
366 367 368 369 370 0
-371 -372 0
-371 -373 0
-371 -374 0
-371 -375 0
-372 -373 0
-372 -374 0
-372 -375 0
-373 -374 0
-373 -375 0
-374 -375 0
371 372 373 374 375 0
-376 -377 0
-376 -378 0
-376 -379 0
-376 -380 0
-377 -378 0
-377 -379 0
-377 -380 0
-378 -379 0
-378 -380 0
-379 -380 0
376 377 378 379 380 0
-381 -382 0
-381 -383 0
-381 -384 0
-381 -385 0
-382 -383 0
-382 -384 0
-382 -385 0
-383 -384 0
-383 -385 0
-384 -385 0
381 382 383 384 385 0
-386 -387 0
-386 -388 0
-386 -389 0
-386 -390 0
-387 -388 0
-387 -389 0
-387 -390 0
-388 -389 0
-388 -390 0
-389 -390 0
386 387 388 389 390 0
-391 -392 0
-391 -393 0
-391 -394 0
-391 -395 0
-392 -393 0
-392 -394 0
-392 -395 0
-393 -394 0
-393 -395 0
-394 -395 0
391 392 393 394 395 0
-396 -397 0
-396 -398 0
-396 -399 0
-396 -400 0
-397 -398 0
-397 -399 0
-397 -400 0
-398 -399 0
-398 -400 0
-399 -400 0
396 397 398 399 400 0
-401 -402 0
-401 -403 0
-401 -404 0
-401 -405 0
-402 -403 0
-402 -404 0
-402 -405 0
-403 -404 0
-403 -405 0
-404 -405 0
401 402 403 404 405 0
-406 -407 0
-406 -408 0
-406 -409 0
-406 -410 0
-407 -408 0
-407 -409 0
-407 -410 0
-408 -409 0
-408 -410 0
-409 -410 0
406 407 408 409 410 0
-411 -412 0
-411 -413 0
-411 -414 0
-411 -415 0
-412 -413 0
-412 -414 0
-412 -415 0
-413 -414 0
-413 -415 0
-414 -415 0
411 412 413 414 415 0
-416 -417 0
-416 -418 0
-416 -419 0
-416 -420 0
-417 -418 0
-417 -419 0
-417 -420 0
-418 -419 0
-418 -420 0
-419 -420 0
416 417 418 419 420 0
-421 -422 0
-421 -423 0
-421 -424 0
-421 -425 0
-422 -423 0
-422 -424 0
-422 -425 0
-423 -424 0
-423 -425 0
-424 -425 0
421 422 423 424 425 0
-426 -427 0
-426 -428 0
-426 -429 0
-426 -430 0
-427 -428 0
-427 -429 0
-427 -430 0
-428 -429 0
-428 -430 0
-429 -430 0
426 427 428 429 430 0
-431 -432 0
-431 -433 0
-431 -434 0
-431 -435 0
-432 -433 0
-432 -434 0
-432 -435 0
-433 -434 0
-433 -435 0
-434 -435 0
431 432 433 434 435 0
-436 -437 0
-436 -438 0
-436 -439 0
-436 -440 0
-437 -438 0
-437 -439 0
-437 -440 0
-438 -439 0
-438 -440 0
-439 -440 0
436 437 438 439 440 0
-441 -442 0
-441 -443 0
-441 -444 0
-441 -445 0
-442 -443 0
-442 -444 0
-442 -445 0
-443 -444 0
-443 -445 0
-444 -445 0
441 442 443 444 445 0
-446 -447 0
-446 -448 0
-446 -449 0
-446 -450 0
-447 -448 0
-447 -449 0
-447 -450 0
-448 -449 0
-448 -450 0
-449 -450 0
446 447 448 449 450 0
-451 -452 0
-451 -453 0
-451 -454 0
-451 -455 0
-452 -453 0
-452 -454 0
-452 -455 0
-453 -454 0
-453 -455 0
-454 -455 0
451 452 453 454 455 0
-456 -457 0
-456 -458 0
-456 -459 0
-456 -460 0
-457 -458 0
-457 -459 0
-457 -460 0
-458 -459 0
-458 -460 0
-459 -460 0
456 457 458 459 460 0
-461 -462 0
-461 -463 0
-461 -464 0
-461 -465 0
-462 -463 0
-462 -464 0
-462 -465 0
-463 -464 0
-463 -465 0
-464 -465 0
461 462 463 464 465 0
-466 -467 0
-466 -468 0
-466 -469 0
-466 -470 0
-467 -468 0
-467 -469 0
-467 -470 0
-468 -469 0
-468 -470 0
-469 -470 0
466 467 468 469 470 0
-471 -472 0
-471 -473 0
-471 -474 0
-471 -475 0
-472 -473 0
-472 -474 0
-472 -475 0
-473 -474 0
-473 -475 0
-474 -475 0
471 472 473 474 475 0
-476 -477 0
-476 -478 0
-476 -479 0
-476 -480 0
-477 -478 0
-477 -479 0
-477 -480 0
-478 -479 0
-478 -480 0
-479 -480 0
476 477 478 479 480 0
-481 -482 0
-481 -483 0
-481 -484 0
-481 -485 0
-482 -483 0
-482 -484 0
-482 -485 0
-483 -484 0
-483 -485 0
-484 -485 0
481 482 483 484 485 0
-486 -487 0
-486 -488 0
-486 -489 0
-486 -490 0
-487 -488 0
-487 -489 0
-487 -490 0
-488 -489 0
-488 -490 0
-489 -490 0
486 487 488 489 490 0
-491 -492 0
-491 -493 0
-491 -494 0
-491 -495 0
-492 -493 0
-492 -494 0
-492 -495 0
-493 -494 0
-493 -495 0
-494 -495 0
491 492 493 494 495 0
-496 -497 0
-496 -498 0
-496 -499 0
-496 -500 0
-497 -498 0
-497 -499 0
-497 -500 0
-498 -499 0
-498 -500 0
-499 -500 0
496 497 498 499 500 0
-1 -21 0
-2 -22 0
-3 -23 0
-4 -24 0
-5 -25 0
-21 -31 0
-22 -32 0
-23 -33 0
-24 -34 0
-25 -35 0
-36 -41 0
-37 -42 0
-38 -43 0
-39 -44 0
-40 -45 0
-41 -46 0
-42 -47 0
-43 -48 0
-44 -49 0
-45 -50 0
-46 -56 0
-47 -57 0
-48 -58 0
-49 -59 0
-50 -60 0
-61 -71 0
-62 -72 0
-63 -73 0
-64 -74 0
-65 -75 0
-66 -76 0
-67 -77 0
-68 -78 0
-69 -79 0
-70 -80 0
-66 -86 0
-67 -87 0
-68 -88 0
-69 -89 0
-70 -90 0
-81 -96 0
-82 -97 0
-83 -98 0
-84 -99 0
-85 -100 0
-86 -96 0
-87 -97 0
-88 -98 0
-89 -99 0
-90 -100 0
-126 -146 0
-127 -147 0
-128 -148 0
-129 -149 0
-130 -150 0
-131 -136 0
-132 -137 0
-133 -138 0
-134 -139 0
-135 -140 0
-141 -151 0
-142 -152 0
-143 -153 0
-144 -154 0
-145 -155 0
-156 -176 0
-157 -177 0
-158 -178 0
-159 -179 0
-160 -180 0
-171 -186 0
-172 -187 0
-173 -188 0
-174 -189 0
-175 -190 0
-186 -201 0
-187 -202 0
-188 -203 0
-189 -204 0
-190 -205 0
-196 -206 0
-197 -207 0
-198 -208 0
-199 -209 0
-200 -210 0
-206 -216 0
-207 -217 0
-208 -218 0
-209 -219 0
-210 -220 0
-211 -226 0
-212 -227 0
-213 -228 0
-214 -229 0
-215 -230 0
-216 -226 0
-217 -227 0
-218 -228 0
-219 -229 0
-220 -230 0
-216 -236 0
-217 -237 0
-218 -238 0
-219 -239 0
-220 -240 0
-241 -256 0
-242 -257 0
-243 -258 0
-244 -259 0
-245 -260 0
-261 -276 0
-262 -277 0
-263 -278 0
-264 -279 0
-265 -280 0
-276 -296 0
-277 -297 0
-278 -298 0
-279 -299 0
-280 -300 0
-331 -336 0
-332 -337 0
-333 -338 0
-334 -339 0
-335 -340 0
-331 -341 0
-332 -342 0
-333 -343 0
-334 -344 0
-335 -345 0
-331 -346 0
-332 -347 0
-333 -348 0
-334 -349 0
-335 -350 0
-356 -361 0
-357 -362 0
-358 -363 0
-359 -364 0
-360 -365 0
-376 -386 0
-377 -387 0
-378 -388 0
-379 -389 0
-380 -390 0
-431 -436 0
-432 -437 0
-433 -438 0
-434 -439 0
-435 -440 0
-451 -466 0
-452 -467 0
-453 -468 0
-454 -469 0
-455 -470 0
-476 -481 0
-477 -482 0
-478 -483 0
-479 -484 0
-480 -485 0
-106 -116 0
-107 -117 0
-108 -118 0
-109 -119 0
-110 -120 0
-456 -476 0
-457 -477 0
-458 -478 0
-459 -479 0
-460 -480 0
-11 -496 0
-12 -497 0
-13 -498 0
-14 -499 0
-15 -500 0
-86 -106 0
-87 -107 0
-88 -108 0
-89 -109 0
-90 -110 0
-181 -186 0
-182 -187 0
-183 -188 0
-184 -189 0
-185 -190 0
-226 -236 0
-227 -237 0
-228 -238 0
-229 -239 0
-230 -240 0
-71 -91 0
-72 -92 0
-73 -93 0
-74 -94 0
-75 -95 0
-201 -206 0
-202 -207 0
-203 -208 0
-204 -209 0
-205 -210 0
-411 -416 0
-412 -417 0
-413 -418 0
-414 -419 0
-415 -420 0
-201 -211 0
-202 -212 0
-203 -213 0
-204 -214 0
-205 -215 0
-181 -196 0
-182 -197 0
-183 -198 0
-184 -199 0
-185 -200 0
-6 -16 0
-7 -17 0
-8 -18 0
-9 -19 0
-10 -20 0
-291 -311 0
-292 -312 0
-293 -313 0
-294 -314 0
-295 -315 0
-221 -231 0
-222 -232 0
-223 -233 0
-224 -234 0
-225 -235 0
-261 -271 0
-262 -272 0
-263 -273 0
-264 -274 0
-265 -275 0
-431 -451 0
-432 -452 0
-433 -453 0
-434 -454 0
-435 -455 0
-6 -26 0
-7 -27 0
-8 -28 0
-9 -29 0
-10 -30 0
-286 -296 0
-287 -297 0
-288 -298 0
-289 -299 0
-290 -300 0
-471 -476 0
-472 -477 0
-473 -478 0
-474 -479 0
-475 -480 0
-226 -246 0
-227 -247 0
-228 -248 0
-229 -249 0
-230 -250 0
-416 -431 0
-417 -432 0
-418 -433 0
-419 -434 0
-420 -435 0
-371 -376 0
-372 -377 0
-373 -378 0
-374 -379 0
-375 -380 0
-76 -91 0
-77 -92 0
-78 -93 0
-79 -94 0
-80 -95 0
-461 -476 0
-462 -477 0
-463 -478 0
-464 -479 0
-465 -480 0
-426 -431 0
-427 -432 0
-428 -433 0
-429 -434 0
-430 -435 0
-86 -91 0
-87 -92 0
-88 -93 0
-89 -94 0
-90 -95 0
-211 -216 0
-212 -217 0
-213 -218 0
-214 -219 0
-215 -220 0
-166 -181 0
-167 -182 0
-168 -183 0
-169 -184 0
-170 -185 0
-181 -191 0
-182 -192 0
-183 -193 0
-184 -194 0
-185 -195 0
-346 -361 0
-347 -362 0
-348 -363 0
-349 -364 0
-350 -365 0
-431 -446 0
-432 -447 0
-433 -448 0
-434 -449 0
-435 -450 0
-411 -426 0
-412 -427 0
-413 -428 0
-414 -429 0
-415 -430 0
-231 -241 0
-232 -242 0
-233 -243 0
-234 -244 0
-235 -245 0
-251 -271 0
-252 -272 0
-253 -273 0
-254 -274 0
-255 -275 0
-391 -406 0
-392 -407 0
-393 -408 0
-394 -409 0
-395 -410 0
-151 -171 0
-152 -172 0
-153 -173 0
-154 -174 0
-155 -175 0
-401 -416 0
-402 -417 0
-403 -418 0
-404 -419 0
-405 -420 0
-196 -211 0
-197 -212 0
-198 -213 0
-199 -214 0
-200 -215 0
-226 -241 0
-227 -242 0
-228 -243 0
-229 -244 0
-230 -245 0
-316 -336 0
-317 -337 0
-318 -338 0
-319 -339 0
-320 -340 0
-361 -371 0
-362 -372 0
-363 -373 0
-364 -374 0
-365 -375 0
-111 -116 0
-112 -117 0
-113 -118 0
-114 -119 0
-115 -120 0
-11 -21 0
-12 -22 0
-13 -23 0
-14 -24 0
-15 -25 0
-176 -191 0
-177 -192 0
-178 -193 0
-179 -194 0
-180 -195 0
-356 -371 0
-357 -372 0
-358 -373 0
-359 -374 0
-360 -375 0
-251 -266 0
-252 -267 0
-253 -268 0
-254 -269 0
-255 -270 0
-266 -271 0
-267 -272 0
-268 -273 0
-269 -274 0
-270 -275 0
-471 -486 0
-472 -487 0
-473 -488 0
-474 -489 0
-475 -490 0
-381 -401 0
-382 -402 0
-383 -403 0
-384 -404 0
-385 -405 0
-266 -286 0
-267 -287 0
-268 -288 0
-269 -289 0
-270 -290 0
-206 -221 0
-207 -222 0
-208 -223 0
-209 -224 0
-210 -225 0
-46 -66 0
-47 -67 0
-48 -68 0
-49 -69 0
-50 -70 0
-316 -331 0
-317 -332 0
-318 -333 0
-319 -334 0
-320 -335 0
-241 -251 0
-242 -252 0
-243 -253 0
-244 -254 0
-245 -255 0
-106 -126 0
-107 -127 0
-108 -128 0
-109 -129 0
-110 -130 0
-176 -181 0
-177 -182 0
-178 -183 0
-179 -184 0
-180 -185 0
-426 -446 0
-427 -447 0
-428 -448 0
-429 -449 0
-430 -450 0
-311 -316 0
-312 -317 0
-313 -318 0
-314 -319 0
-315 -320 0
-216 -231 0
-217 -232 0
-218 -233 0
-219 -234 0
-220 -235 0
-271 -276 0
-272 -277 0
-273 -278 0
-274 -279 0
-275 -280 0
-81 -91 0
-82 -92 0
-83 -93 0
-84 -94 0
-85 -95 0
-316 -321 0
-317 -322 0
-318 -323 0
-319 -324 0
-320 -325 0
-1 -491 0
-2 -492 0
-3 -493 0
-4 -494 0
-5 -495 0
-121 -136 0
-122 -137 0
-123 -138 0
-124 -139 0
-125 -140 0
-141 -156 0
-142 -157 0
-143 -158 0
-144 -159 0
-145 -160 0
-136 -151 0
-137 -152 0
-138 -153 0
-139 -154 0
-140 -155 0
-336 -351 0
-337 -352 0
-338 -353 0
-339 -354 0
-340 -355 0
-71 -86 0
-72 -87 0
-73 -88 0
-74 -89 0
-75 -90 0
-121 -131 0
-122 -132 0
-123 -133 0
-124 -134 0
-125 -135 0
-166 -186 0
-167 -187 0
-168 -188 0
-169 -189 0
-170 -190 0
-81 -101 0
-82 -102 0
-83 -103 0
-84 -104 0
-85 -105 0
-166 -171 0
-167 -172 0
-168 -173 0
-169 -174 0
-170 -175 0
-171 -191 0
-172 -192 0
-173 -193 0
-174 -194 0
-175 -195 0
-151 -166 0
-152 -167 0
-153 -168 0
-154 -169 0
-155 -170 0
-111 -121 0
-112 -122 0
-113 -123 0
-114 -124 0
-115 -125 0
-271 -281 0
-272 -282 0
-273 -283 0
-274 -284 0
-275 -285 0
-11 -491 0
-12 -492 0
-13 -493 0
-14 -494 0
-15 -495 0
-271 -291 0
-272 -292 0
-273 -293 0
-274 -294 0
-275 -295 0
-386 -401 0
-387 -402 0
-388 -403 0
-389 -404 0
-390 -405 0
-481 -496 0
-482 -497 0
-483 -498 0
-484 -499 0
-485 -500 0
-246 -251 0
-247 -252 0
-248 -253 0
-249 -254 0
-250 -255 0
-76 -81 0
-77 -82 0
-78 -83 0
-79 -84 0
-80 -85 0
-31 -46 0
-32 -47 0
-33 -48 0
-34 -49 0
-35 -50 0
-231 -246 0
-232 -247 0
-233 -248 0
-234 -249 0
-235 -250 0
-131 -146 0
-132 -147 0
-133 -148 0
-134 -149 0
-135 -150 0
-181 -201 0
-182 -202 0
-183 -203 0
-184 -204 0
-185 -205 0
-51 -71 0
-52 -72 0
-53 -73 0
-54 -74 0
-55 -75 0
-306 -316 0
-307 -317 0
-308 -318 0
-309 -319 0
-310 -320 0
-371 -386 0
-372 -387 0
-373 -388 0
-374 -389 0
-375 -390 0
-491 -496 0
-492 -497 0
-493 -498 0
-494 -499 0
-495 -500 0
-116 -131 0
-117 -132 0
-118 -133 0
-119 -134 0
-120 -135 0
-166 -176 0
-167 -177 0
-168 -178 0
-169 -179 0
-170 -180 0
-306 -321 0
-307 -322 0
-308 -323 0
-309 -324 0
-310 -325 0
-51 -56 0
-52 -57 0
-53 -58 0
-54 -59 0
-55 -60 0
-401 -411 0
-402 -412 0
-403 -413 0
-404 -414 0
-405 -415 0
-396 -401 0
-397 -402 0
-398 -403 0
-399 -404 0
-400 -405 0
-1 -481 0
-2 -482 0
-3 -483 0
-4 -484 0
-5 -485 0
-6 -486 0
-7 -487 0
-8 -488 0
-9 -489 0
-10 -490 0
-421 -431 0
-422 -432 0
-423 -433 0
-424 -434 0
-425 -435 0
-456 -471 0
-457 -472 0
-458 -473 0
-459 -474 0
-460 -475 0
-6 -491 0
-7 -492 0
-8 -493 0
-9 -494 0
-10 -495 0
-16 -31 0
-17 -32 0
-18 -33 0
-19 -34 0
-20 -35 0
-416 -436 0
-417 -437 0
-418 -438 0
-419 -439 0
-420 -440 0
-141 -146 0
-142 -147 0
-143 -148 0
-144 -149 0
-145 -150 0
-336 -346 0
-337 -347 0
-338 -348 0
-339 -349 0
-340 -350 0
-51 -66 0
-52 -67 0
-53 -68 0
-54 -69 0
-55 -70 0
-101 -106 0
-102 -107 0
-103 -108 0
-104 -109 0
-105 -110 0
-11 -31 0
-12 -32 0
-13 -33 0
-14 -34 0
-15 -35 0
-41 -51 0
-42 -52 0
-43 -53 0
-44 -54 0
-45 -55 0
-281 -286 0
-282 -287 0
-283 -288 0
-284 -289 0
-285 -290 0
-21 -36 0
-22 -37 0
-23 -38 0
-24 -39 0
-25 -40 0
-436 -456 0
-437 -457 0
-438 -458 0
-439 -459 0
-440 -460 0
-101 -121 0
-102 -122 0
-103 -123 0
-104 -124 0
-105 -125 0
-311 -321 0
-312 -322 0
-313 -323 0
-314 -324 0
-315 -325 0
-481 -486 0
-482 -487 0
-483 -488 0
-484 -489 0
-485 -490 0
-251 -256 0
-252 -257 0
-253 -258 0
-254 -259 0
-255 -260 0
-261 -266 0
-262 -267 0
-263 -268 0
-264 -269 0
-265 -270 0
-446 -466 0
-447 -467 0
-448 -468 0
-449 -469 0
-450 -470 0
-356 -376 0
-357 -377 0
-358 -378 0
-359 -379 0
-360 -380 0
-366 -371 0
-367 -372 0
-368 -373 0
-369 -374 0
-370 -375 0
-16 -21 0
-17 -22 0
-18 -23 0
-19 -24 0
-20 -25 0
-1 -486 0
-2 -487 0
-3 -488 0
-4 -489 0
-5 -490 0
-341 -351 0
-342 -352 0
-343 -353 0
-344 -354 0
-345 -355 0
-231 -251 0
-232 -252 0
-233 -253 0
-234 -254 0
-235 -255 0
-276 -281 0
-277 -282 0
-278 -283 0
-279 -284 0
-280 -285 0
-106 -121 0
-107 -122 0
-108 -123 0
-109 -124 0
-110 -125 0
-221 -236 0
-222 -237 0
-223 -238 0
-224 -239 0
-225 -240 0
-236 -241 0
-237 -242 0
-238 -243 0
-239 -244 0
-240 -245 0
-431 -441 0
-432 -442 0
-433 -443 0
-434 -444 0
-435 -445 0
-476 -491 0
-477 -492 0
-478 -493 0
-479 -494 0
-480 -495 0
-256 -271 0
-257 -272 0
-258 -273 0
-259 -274 0
-260 -275 0
-456 -466 0
-457 -467 0
-458 -468 0
-459 -469 0
-460 -470 0
-471 -481 0
-472 -482 0
-473 -483 0
-474 -484 0
-475 -485 0
-351 -356 0
-352 -357 0
-353 -358 0
-354 -359 0
-355 -360 0
-296 -316 0
-297 -317 0
-298 -318 0
-299 -319 0
-300 -320 0
-486 -496 0
-487 -497 0
-488 -498 0
-489 -499 0
-490 -500 0
-466 -481 0
-467 -482 0
-468 -483 0
-469 -484 0
-470 -485 0
-391 -396 0
-392 -397 0
-393 -398 0
-394 -399 0
-395 -400 0
-446 -451 0
-447 -452 0
-448 -453 0
-449 -454 0
-450 -455 0
-441 -451 0
-442 -452 0
-443 -453 0
-444 -454 0
-445 -455 0
-366 -381 0
-367 -382 0
-368 -383 0
-369 -384 0
-370 -385 0
-231 -236 0
-232 -237 0
-233 -238 0
-234 -239 0
-235 -240 0
-246 -261 0
-247 -262 0
-248 -263 0
-249 -264 0
-250 -265 0
-441 -446 0
-442 -447 0
-443 -448 0
-444 -449 0
-445 -450 0
-76 -96 0
-77 -97 0
-78 -98 0
-79 -99 0
-80 -100 0
-196 -201 0
-197 -202 0
-198 -203 0
-199 -204 0
-200 -205 0
-321 -336 0
-322 -337 0
-323 -338 0
-324 -339 0
-325 -340 0
-211 -231 0
-212 -232 0
-213 -233 0
-214 -234 0
-215 -235 0
-246 -266 0
-247 -267 0
-248 -268 0
-249 -269 0
-250 -270 0
-326 -331 0
-327 -332 0
-328 -333 0
-329 -334 0
-330 -335 0
-56 -71 0
-57 -72 0
-58 -73 0
-59 -74 0
-60 -75 0
-96 -116 0
-97 -117 0
-98 -118 0
-99 -119 0
-100 -120 0
-351 -366 0
-352 -367 0
-353 -368 0
-354 -369 0
-355 -370 0
-466 -476 0
-467 -477 0
-468 -478 0
-469 -479 0
-470 -480 0
-281 -301 0
-282 -302 0
-283 -303 0
-284 -304 0
-285 -305 0
-46 -61 0
-47 -62 0
-48 -63 0
-49 -64 0
-50 -65 0
-366 -376 0
-367 -377 0
-368 -378 0
-369 -379 0
-370 -380 0
-161 -166 0
-162 -167 0
-163 -168 0
-164 -169 0
-165 -170 0
-466 -471 0
-467 -472 0
-468 -473 0
-469 -474 0
-470 -475 0
-311 -331 0
-312 -332 0
-313 -333 0
-314 -334 0
-315 -335 0
-386 -391 0
-387 -392 0
-388 -393 0
-389 -394 0
-390 -395 0
-171 -176 0
-172 -177 0
-173 -178 0
-174 -179 0
-175 -180 0
-66 -71 0
-67 -72 0
-68 -73 0
-69 -74 0
-70 -75 0
-11 -26 0
-12 -27 0
-13 -28 0
-14 -29 0
-15 -30 0
-26 -46 0
-27 -47 0
-28 -48 0
-29 -49 0
-30 -50 0
-276 -291 0
-277 -292 0
-278 -293 0
-279 -294 0
-280 -295 0
-301 -321 0
-302 -322 0
-303 -323 0
-304 -324 0
-305 -325 0
-416 -421 0
-417 -422 0
-418 -423 0
-419 -424 0
-420 -425 0
-421 -441 0
-422 -442 0
-423 -443 0
-424 -444 0
-425 -445 0
-236 -256 0
-237 -257 0
-238 -258 0
-239 -259 0
-240 -260 0
-116 -126 0
-117 -127 0
-118 -128 0
-119 -129 0
-120 -130 0
-316 -326 0
-317 -327 0
-318 -328 0
-319 -329 0
-320 -330 0
-296 -306 0
-297 -307 0
-298 -308 0
-299 -309 0
-300 -310 0
-461 -466 0
-462 -467 0
-463 -468 0
-464 -469 0
-465 -470 0
-71 -76 0
-72 -77 0
-73 -78 0
-74 -79 0
-75 -80 0
-281 -291 0
-282 -292 0
-283 -293 0
-284 -294 0
-285 -295 0
-411 -421 0
-412 -422 0
-413 -423 0
-414 -424 0
-415 -425 0
-401 -421 0
-402 -422 0
-403 -423 0
-404 -424 0
-405 -425 0
-411 -431 0
-412 -432 0
-413 -433 0
-414 -434 0
-415 -435 0
-36 -46 0
-37 -47 0
-38 -48 0
-39 -49 0
-40 -50 0
-36 -51 0
-37 -52 0
-38 -53 0
-39 -54 0
-40 -55 0
-446 -461 0
-447 -462 0
-448 -463 0
-449 -464 0
-450 -465 0
-161 -176 0
-162 -177 0
-163 -178 0
-164 -179 0
-165 -180 0
-341 -361 0
-342 -362 0
-343 -363 0
-344 -364 0
-345 -365 0
-16 -226 0
-17 -227 0
-18 -228 0
-19 -229 0
-20 -230 0
-346 -421 0
-347 -422 0
-348 -423 0
-349 -424 0
-350 -425 0
-456 -481 0
-457 -482 0
-458 -483 0
-459 -484 0
-460 -485 0
-86 -136 0
-87 -137 0
-88 -138 0
-89 -139 0
-90 -140 0
-196 -406 0
-197 -407 0
-198 -408 0
-199 -409 0
-200 -410 0
-11 -446 0
-12 -447 0
-13 -448 0
-14 -449 0
-15 -450 0
-46 -351 0
-47 -352 0
-48 -353 0
-49 -354 0
-50 -355 0
-181 -226 0
-182 -227 0
-183 -228 0
-184 -229 0
-185 -230 0
-66 -126 0
-67 -127 0
-68 -128 0
-69 -129 0
-70 -130 0
-46 -461 0
-47 -462 0
-48 -463 0
-49 -464 0
-50 -465 0
-126 -296 0
-127 -297 0
-128 -298 0
-129 -299 0
-130 -300 0
-266 -406 0
-267 -407 0
-268 -408 0
-269 -409 0
-270 -410 0
-56 -226 0
-57 -227 0
-58 -228 0
-59 -229 0
-60 -230 0
-91 -421 0
-92 -422 0
-93 -423 0
-94 -424 0
-95 -425 0
-91 -441 0
-92 -442 0
-93 -443 0
-94 -444 0
-95 -445 0
-6 -481 0
-7 -482 0
-8 -483 0
-9 -484 0
-10 -485 0
-271 -346 0
-272 -347 0
-273 -348 0
-274 -349 0
-275 -350 0
-101 -176 0
-102 -177 0
-103 -178 0
-104 -179 0
-105 -180 0
-146 -286 0
-147 -287 0
-148 -288 0
-149 -289 0
-150 -290 0
-16 -176 0
-17 -177 0
-18 -178 0
-19 -179 0
-20 -180 0
-106 -256 0
-107 -257 0
-108 -258 0
-109 -259 0
-110 -260 0
-6 -121 0
-7 -122 0
-8 -123 0
-9 -124 0
-10 -125 0
-51 -371 0
-52 -372 0
-53 -373 0
-54 -374 0
-55 -375 0
-181 -316 0
-182 -317 0
-183 -318 0
-184 -319 0
-185 -320 0
-61 -381 0
-62 -382 0
-63 -383 0
-64 -384 0
-65 -385 0
-36 -416 0
-37 -417 0
-38 -418 0
-39 -419 0
-40 -420 0
-176 -431 0
-177 -432 0
-178 -433 0
-179 -434 0
-180 -435 0
-26 -471 0
-27 -472 0
-28 -473 0
-29 -474 0
-30 -475 0
-56 -216 0
-57 -217 0
-58 -218 0
-59 -219 0
-60 -220 0
-276 -436 0
-277 -437 0
-278 -438 0
-279 -439 0
-280 -440 0
-276 -421 0
-277 -422 0
-278 -423 0
-279 -424 0
-280 -425 0
-311 -391 0
-312 -392 0
-313 -393 0
-314 -394 0
-315 -395 0
-296 -346 0
-297 -347 0
-298 -348 0
-299 -349 0
-300 -350 0
-191 -441 0
-192 -442 0
-193 -443 0
-194 -444 0
-195 -445 0
-41 -231 0
-42 -232 0
-43 -233 0
-44 -234 0
-45 -235 0
-116 -201 0
-117 -202 0
-118 -203 0
-119 -204 0
-120 -205 0
-176 -286 0
-177 -287 0
-178 -288 0
-179 -289 0
-180 -290 0
-216 -401 0
-217 -402 0
-218 -403 0
-219 -404 0
-220 -405 0
-161 -366 0
-162 -367 0
-163 -368 0
-164 -369 0
-165 -370 0
-276 -456 0
-277 -457 0
-278 -458 0
-279 -459 0
-280 -460 0
-246 -406 0
-247 -407 0
-248 -408 0
-249 -409 0
-250 -410 0
-316 -461 0
-317 -462 0
-318 -463 0
-319 -464 0
-320 -465 0
-196 -226 0
-197 -227 0
-198 -228 0
-199 -229 0
-200 -230 0
-96 -136 0
-97 -137 0
-98 -138 0
-99 -139 0
-100 -140 0
-191 -271 0
-192 -272 0
-193 -273 0
-194 -274 0
-195 -275 0
-176 -376 0
-177 -377 0
-178 -378 0
-179 -379 0
-180 -380 0
-366 -471 0
-367 -472 0
-368 -473 0
-369 -474 0
-370 -475 0
-416 -481 0
-417 -482 0
-418 -483 0
-419 -484 0
-420 -485 0
-81 -186 0
-82 -187 0
-83 -188 0
-84 -189 0
-85 -190 0
-56 -321 0
-57 -322 0
-58 -323 0
-59 -324 0
-60 -325 0
-316 -401 0
-317 -402 0
-318 -403 0
-319 -404 0
-320 -405 0
-66 -151 0
-67 -152 0
-68 -153 0
-69 -154 0
-70 -155 0
-36 -271 0
-37 -272 0
-38 -273 0
-39 -274 0
-40 -275 0
-356 -436 0
-357 -437 0
-358 -438 0
-359 -439 0
-360 -440 0
-66 -271 0
-67 -272 0
-68 -273 0
-69 -274 0
-70 -275 0
-36 -481 0
-37 -482 0
-38 -483 0
-39 -484 0
-40 -485 0
-241 -376 0
-242 -377 0
-243 -378 0
-244 -379 0
-245 -380 0
-61 -471 0
-62 -472 0
-63 -473 0
-64 -474 0
-65 -475 0
-251 -386 0
-252 -387 0
-253 -388 0
-254 -389 0
-255 -390 0
-36 -286 0
-37 -287 0
-38 -288 0
-39 -289 0
-40 -290 0
-111 -141 0
-112 -142 0
-113 -143 0
-114 -144 0
-115 -145 0
-346 -451 0
-347 -452 0
-348 -453 0
-349 -454 0
-350 -455 0
-111 -161 0
-112 -162 0
-113 -163 0
-114 -164 0
-115 -165 0
-176 -396 0
-177 -397 0
-178 -398 0
-179 -399 0
-180 -400 0
-226 -306 0
-227 -307 0
-228 -308 0
-229 -309 0
-230 -310 0
-221 -396 0
-222 -397 0
-223 -398 0
-224 -399 0
-225 -400 0
-56 -331 0
-57 -332 0
-58 -333 0
-59 -334 0
-60 -335 0
-171 -476 0
-172 -477 0
-173 -478 0
-174 -479 0
-175 -480 0
-56 -301 0
-57 -302 0
-58 -303 0
-59 -304 0
-60 -305 0
-76 -271 0
-77 -272 0
-78 -273 0
-79 -274 0
-80 -275 0
-256 -396 0
-257 -397 0
-258 -398 0
-259 -399 0
-260 -400 0
-166 -301 0
-167 -302 0
-168 -303 0
-169 -304 0
-170 -305 0
-206 -346 0
-207 -347 0
-208 -348 0
-209 -349 0
-210 -350 0
-151 -361 0
-152 -362 0
-153 -363 0
-154 -364 0
-155 -365 0
-121 -406 0
-122 -407 0
-123 -408 0
-124 -409 0
-125 -410 0
-61 -196 0
-62 -197 0
-63 -198 0
-64 -199 0
-65 -200 0
-41 -76 0
-42 -77 0
-43 -78 0
-44 -79 0
-45 -80 0
-161 -401 0
-162 -402 0
-163 -403 0
-164 -404 0
-165 -405 0
-401 -451 0
-402 -452 0
-403 -453 0
-404 -454 0
-405 -455 0
-261 -416 0
-262 -417 0
-263 -418 0
-264 -419 0
-265 -420 0
-31 -406 0
-32 -407 0
-33 -408 0
-34 -409 0
-35 -410 0
-381 -431 0
-382 -432 0
-383 -433 0
-384 -434 0
-385 -435 0
-241 -496 0
-242 -497 0
-243 -498 0
-244 -499 0
-245 -500 0
-136 -366 0
-137 -367 0
-138 -368 0
-139 -369 0
-140 -370 0
-411 -436 0
-412 -437 0
-413 -438 0
-414 -439 0
-415 -440 0
-141 -321 0
-142 -322 0
-143 -323 0
-144 -324 0
-145 -325 0
-171 -486 0
-172 -487 0
-173 -488 0
-174 -489 0
-175 -490 0
-76 -126 0
-77 -127 0
-78 -128 0
-79 -129 0
-80 -130 0
-146 -356 0
-147 -357 0
-148 -358 0
-149 -359 0
-150 -360 0
-31 -96 0
-32 -97 0
-33 -98 0
-34 -99 0
-35 -100 0
-81 -331 0
-82 -332 0
-83 -333 0
-84 -334 0
-85 -335 0
-6 -271 0
-7 -272 0
-8 -273 0
-9 -274 0
-10 -275 0
-86 -231 0
-87 -232 0
-88 -233 0
-89 -234 0
-90 -235 0
-61 -446 0
-62 -447 0
-63 -448 0
-64 -449 0
-65 -450 0
-311 -426 0
-312 -427 0
-313 -428 0
-314 -429 0
-315 -430 0
-341 -416 0
-342 -417 0
-343 -418 0
-344 -419 0
-345 -420 0
-91 -471 0
-92 -472 0
-93 -473 0
-94 -474 0
-95 -475 0
-181 -411 0
-182 -412 0
-183 -413 0
-184 -414 0
-185 -415 0
-16 -111 0
-17 -112 0
-18 -113 0
-19 -114 0
-20 -115 0
-81 -406 0
-82 -407 0
-83 -408 0
-84 -409 0
-85 -410 0
-41 -131 0
-42 -132 0
-43 -133 0
-44 -134 0
-45 -135 0
-91 -126 0
-92 -127 0
-93 -128 0
-94 -129 0
-95 -130 0
-151 -221 0
-152 -222 0
-153 -223 0
-154 -224 0
-155 -225 0
-146 -386 0
-147 -387 0
-148 -388 0
-149 -389 0
-150 -390 0
-186 -316 0
-187 -317 0
-188 -318 0
-189 -319 0
-190 -320 0
-281 -376 0
-282 -377 0
-283 -378 0
-284 -379 0
-285 -380 0
-6 -326 0
-7 -327 0
-8 -328 0
-9 -329 0
-10 -330 0
-106 -471 0
-107 -472 0
-108 -473 0
-109 -474 0
-110 -475 0
-11 -286 0
-12 -287 0
-13 -288 0
-14 -289 0
-15 -290 0
-211 -311 0
-212 -312 0
-213 -313 0
-214 -314 0
-215 -315 0
-256 -341 0
-257 -342 0
-258 -343 0
-259 -344 0
-260 -345 0
-206 -381 0
-207 -382 0
-208 -383 0
-209 -384 0
-210 -385 0
-141 -436 0
-142 -437 0
-143 -438 0
-144 -439 0
-145 -440 0
-166 -191 0
-167 -192 0
-168 -193 0
-169 -194 0
-170 -195 0
-251 -476 0
-252 -477 0
-253 -478 0
-254 -479 0
-255 -480 0
-71 -101 0
-72 -102 0
-73 -103 0
-74 -104 0
-75 -105 0
-126 -486 0
-127 -487 0
-128 -488 0
-129 -489 0
-130 -490 0
-101 -266 0
-102 -267 0
-103 -268 0
-104 -269 0
-105 -270 0
-106 -216 0
-107 -217 0
-108 -218 0
-109 -219 0
-110 -220 0
-6 -436 0
-7 -437 0
-8 -438 0
-9 -439 0
-10 -440 0
-171 -211 0
-172 -212 0
-173 -213 0
-174 -214 0
-175 -215 0
-31 -216 0
-32 -217 0
-33 -218 0
-34 -219 0
-35 -220 0
-321 -436 0
-322 -437 0
-323 -438 0
-324 -439 0
-325 -440 0
-356 -471 0
-357 -472 0
-358 -473 0
-359 -474 0
-360 -475 0
-356 -391 0
-357 -392 0
-358 -393 0
-359 -394 0
-360 -395 0
-266 -466 0
-267 -467 0
-268 -468 0
-269 -469 0
-270 -470 0
-186 -406 0
-187 -407 0
-188 -408 0
-189 -409 0
-190 -410 0
-361 -426 0
-362 -427 0
-363 -428 0
-364 -429 0
-365 -430 0
-126 -336 0
-127 -337 0
-128 -338 0
-129 -339 0
-130 -340 0
-16 -491 0
-17 -492 0
-18 -493 0
-19 -494 0
-20 -495 0
-11 -401 0
-12 -402 0
-13 -403 0
-14 -404 0
-15 -405 0
-36 -81 0
-37 -82 0
-38 -83 0
-39 -84 0
-40 -85 0
-136 -166 0
-137 -167 0
-138 -168 0
-139 -169 0
-140 -170 0
-121 -351 0
-122 -352 0
-123 -353 0
-124 -354 0
-125 -355 0
-56 -181 0
-57 -182 0
-58 -183 0
-59 -184 0
-60 -185 0
-11 -111 0
-12 -112 0
-13 -113 0
-14 -114 0
-15 -115 0
-71 -381 0
-72 -382 0
-73 -383 0
-74 -384 0
-75 -385 0
-136 -281 0
-137 -282 0
-138 -283 0
-139 -284 0
-140 -285 0
-51 -146 0
-52 -147 0
-53 -148 0
-54 -149 0
-55 -150 0
-231 -326 0
-232 -327 0
-233 -328 0
-234 -329 0
-235 -330 0
-326 -351 0
-327 -352 0
-328 -353 0
-329 -354 0
-330 -355 0
-126 -471 0
-127 -472 0
-128 -473 0
-129 -474 0
-130 -475 0
-16 -101 0
-17 -102 0
-18 -103 0
-19 -104 0
-20 -105 0
-421 -491 0
-422 -492 0
-423 -493 0
-424 -494 0
-425 -495 0
-281 -371 0
-282 -372 0
-283 -373 0
-284 -374 0
-285 -375 0
-121 -386 0
-122 -387 0
-123 -388 0
-124 -389 0
-125 -390 0
-21 -461 0
-22 -462 0
-23 -463 0
-24 -464 0
-25 -465 0
-56 -291 0
-57 -292 0
-58 -293 0
-59 -294 0
-60 -295 0
-211 -276 0
-212 -277 0
-213 -278 0
-214 -279 0
-215 -280 0
-136 -261 0
-137 -262 0
-138 -263 0
-139 -264 0
-140 -265 0
-31 -261 0
-32 -262 0
-33 -263 0
-34 -264 0
-35 -265 0
-146 -261 0
-147 -262 0
-148 -263 0
-149 -264 0
-150 -265 0
-1 -351 0
-2 -352 0
-3 -353 0
-4 -354 0
-5 -355 0
-331 -406 0
-332 -407 0
-333 -408 0
-334 -409 0
-335 -410 0
-36 -306 0
-37 -307 0
-38 -308 0
-39 -309 0
-40 -310 0
-251 -276 0
-252 -277 0
-253 -278 0
-254 -279 0
-255 -280 0
-111 -266 0
-112 -267 0
-113 -268 0
-114 -269 0
-115 -270 0
-206 -266 0
-207 -267 0
-208 -268 0
-209 -269 0
-210 -270 0
-76 -191 0
-77 -192 0
-78 -193 0
-79 -194 0
-80 -195 0
-291 -456 0
-292 -457 0
-293 -458 0
-294 -459 0
-295 -460 0
-11 -241 0
-12 -242 0
-13 -243 0
-14 -244 0
-15 -245 0
-116 -431 0
-117 -432 0
-118 -433 0
-119 -434 0
-120 -435 0
-131 -361 0
-132 -362 0
-133 -363 0
-134 -364 0
-135 -365 0
-16 -476 0
-17 -477 0
-18 -478 0
-19 -479 0
-20 -480 0
-246 -496 0
-247 -497 0
-248 -498 0
-249 -499 0
-250 -500 0
-391 -466 0
-392 -467 0
-393 -468 0
-394 -469 0
-395 -470 0
-56 -446 0
-57 -447 0
-58 -448 0
-59 -449 0
-60 -450 0
-71 -236 0
-72 -237 0
-73 -238 0
-74 -239 0
-75 -240 0
-146 -441 0
-147 -442 0
-148 -443 0
-149 -444 0
-150 -445 0
-76 -476 0
-77 -477 0
-78 -478 0
-79 -479 0
-80 -480 0
-216 -431 0
-217 -432 0
-218 -433 0
-219 -434 0
-220 -435 0
-216 -276 0
-217 -277 0
-218 -278 0
-219 -279 0
-220 -280 0
-301 -451 0
-302 -452 0
-303 -453 0
-304 -454 0
-305 -455 0
-446 -496 0
-447 -497 0
-448 -498 0
-449 -499 0
-450 -500 0
-41 -146 0
-42 -147 0
-43 -148 0
-44 -149 0
-45 -150 0
-71 -226 0
-72 -227 0
-73 -228 0
-74 -229 0
-75 -230 0
-36 -171 0
-37 -172 0
-38 -173 0
-39 -174 0
-40 -175 0
-341 -396 0
-342 -397 0
-343 -398 0
-344 -399 0
-345 -400 0
-106 -366 0
-107 -367 0
-108 -368 0
-109 -369 0
-110 -370 0
-131 -261 0
-132 -262 0
-133 -263 0
-134 -264 0
-135 -265 0
-56 -416 0
-57 -417 0
-58 -418 0
-59 -419 0
-60 -420 0
-86 -126 0
-87 -127 0
-88 -128 0
-89 -129 0
-90 -130 0
-121 -311 0
-122 -312 0
-123 -313 0
-124 -314 0
-125 -315 0
-111 -171 0
-112 -172 0
-113 -173 0
-114 -174 0
-115 -175 0
